\ Model vert
\ LP format - for model browsing. Use MPS format to capture full model detail.
Minimize
  5414.277410013657 S_coef + 43.57074891882311 Constant + [ 336400 S_coef ^2
   ] / 2 
Subject To
Bounds
 -1000 <= S_coef <= 0
 Constant = 1
End
